<number of tasks>
89

<cycle time>
21

<task times>
1 1
2 2
3 3
4 4
5 5
6 6
7 7
8 8
9 9
10 10
11 1
12 2
13 3
14 4
15 5
16 6
17 7
18 8
19 9
20 10
21 1
22 2
23 3
24 4
25 5
26 6
27 7
28 8
29 9
30 10
31 1
32 2
33 3
34 4
35 5
36 6
37 7
38 8
39 9
40 10
41 1
42 2
43 3
44 4
45 5
46 6
47 7
48 8
49 9
50 10
51 1
52 2
53 3
54 4
55 5
56 6
57 7
58 8
59 9
60 10
61 1
62 2
63 3
64 4
65 5
66 6
67 7
68 8
69 9
70 10
71 1
72 2
73 3
74 4
75 5
76 6
77 7
78 8
79 9
80 10
81 1
82 2
83 3
84 4
85 5
86 6
87 7
88 8
89 9

<precedence relations>
1,2
2,3
3,4
4,5
4,6
4,7
4,8
4,9
5,10
6,11
7,12
8,18
9,18
10,14
11,12
12,13
13,14
14,15
14,16
15,17
16,54
17,18
18,19
18,20
19,22
20,21
20,28
21,54
22,23
23,24
24,25
25,26
25,27
25,29
26,37
27,33
28,29
29,31
30,54
31,32
32,33
33,34
34,35
35,36
35,37
36,38
37,38
38,39
39,40
39,41
39,42
39,43
40,44
41,53
42,53
43,45
44,52
45,46
46,47
47,48
47,49
49,50
50,51
51,52
52,53
53,68
53,69
53,70
53,71
54,55
55,56
56,57
57,58
57,59
57,60
57,61
57,62
57,63
57,64
57,65
57,66
58,67
59,67
60,67
61,67
62,67
63,67
64,67
65,67
66,67
67,73
68,72
69,72
70,72
71,73
72,78
72,80
73,74
74,75
74,76
75,77
76,81
77,78
78,79
79,81
80,81
81,82
81,84
81,85
82,83
83,86
84,86
85,86
86,87
87,88
87,89

<setup times forward>
4,9:1
5,9:1
5,13:1
6,9:1
7,9:1
8,9:1
8,13:1
8,14:1
8,15:1
9,5:1
9,6:1
9,7:1
9,8:1
9,10:1
9,11:1
9,12:1
9,16:1
9,17:1
9,18:1
9,30:1
10,9:1
10,13:1
10,14:1
11,9:1
12,9:1
12,13:1
13,5:1
13,8:1
13,10:1
13,30:1
14,8:1
14,16:1
14,30:1
15,8:1
15,16:1
15,17:1
15,30:1
16,9:1
16,15:1
16,19:1
16,22:1
16,23:1
16,24:1
16,29:1
16,31:1
16,32:1
16,33:1
16,34:1
16,36:1
16,37:1
16,38:1
16,39:1
16,41:1
16,42:1
16,43:1
16,47:1
16,49:1
16,53:1
16,54:1
16,68:1
16,70:1
17,9:1
18,19:1
19,16:1
19,20:1
19,21:1
19,28:1
19,30:1
19,56:1
19,57:1
19,58:1
19,59:1
19,61:1
19,63:1
19,65:1
19,67:1
20,19:1
20,22:1
20,23:1
20,24:1
21,19:1
21,22:1
21,23:1
21,24:1
21,29:1
21,31:1
21,32:1
21,33:1
21,34:1
21,36:1
21,37:1
21,38:1
21,39:1
21,41:1
21,42:1
21,43:1
21,47:1
21,49:1
21,53:1
21,54:1
21,68:1
21,70:1
22,16:1
22,20:1
22,21:1
22,28:1
22,30:1
22,56:1
22,57:1
22,58:1
22,59:1
22,61:1
22,63:1
22,65:1
22,67:1
23,16:1
23,20:1
23,21:1
23,28:1
23,30:1
23,56:1
23,57:1
23,58:1
23,59:1
23,61:1
23,63:1
23,65:1
23,67:1
24,16:1
24,20:1
24,21:1
24,25:1
24,28:1
24,30:1
24,56:1
24,57:1
24,58:1
24,59:1
24,61:1
24,63:1
24,65:1
24,67:1
25,29:1
25,54:1
25,55:1
25,60:1
25,62:1
25,64:1
25,66:1
26,29:1
26,31:1
26,32:1
26,33:1
26,34:1
26,36:1
26,37:1
26,54:1
26,55:1
26,60:1
26,62:1
26,64:1
26,66:1
27,29:1
27,31:1
27,32:1
27,33:1
27,54:1
27,55:1
27,60:1
27,62:1
27,64:1
27,66:1
28,19:1
28,22:1
28,23:1
28,24:1
28,29:1
28,54:1
28,55:1
28,60:1
28,62:1
28,64:1
28,66:1
29,16:1
29,21:1
29,26:1
29,27:1
29,30:1
29,56:1
29,57:1
29,58:1
29,59:1
29,61:1
29,63:1
29,65:1
29,67:1
30,9:1
30,13:1
30,14:1
30,15:1
30,19:1
30,22:1
30,23:1
30,24:1
30,29:1
30,31:1
30,32:1
30,33:1
30,34:1
30,36:1
30,37:1
30,38:1
30,39:1
30,41:1
30,42:1
30,43:1
30,47:1
30,49:1
30,53:1
30,54:1
30,68:1
30,70:1
31,16:1
31,21:1
31,26:1
31,27:1
31,30:1
31,56:1
31,57:1
31,58:1
31,59:1
31,61:1
31,63:1
31,65:1
31,67:1
32,16:1
32,21:1
32,26:1
32,27:1
32,30:1
32,56:1
32,57:1
32,58:1
32,59:1
32,61:1
32,63:1
32,65:1
32,67:1
33,16:1
33,21:1
33,26:1
33,30:1
33,56:1
33,57:1
33,58:1
33,59:1
33,61:1
33,63:1
33,65:1
33,67:1
34,16:1
34,21:1
34,26:1
34,30:1
34,35:1
34,56:1
34,57:1
34,58:1
34,59:1
34,61:1
34,63:1
34,65:1
34,67:1
35,36:1
35,37:1
35,54:1
35,55:1
35,60:1
35,62:1
35,64:1
35,66:1
36,16:1
36,21:1
36,26:1
36,30:1
36,56:1
36,57:1
36,58:1
36,59:1
36,61:1
36,63:1
36,65:1
36,67:1
37,16:1
37,21:1
37,30:1
37,56:1
37,57:1
37,58:1
37,59:1
37,61:1
37,63:1
37,65:1
37,67:1
38,16:1
38,21:1
38,30:1
38,56:1
38,57:1
38,58:1
38,59:1
38,61:1
38,63:1
38,65:1
38,67:1
39,16:1
39,21:1
39,30:1
39,40:1
39,56:1
39,57:1
39,58:1
39,59:1
39,61:1
39,63:1
39,65:1
39,67:1
40,41:1
40,42:1
40,43:1
40,47:1
40,49:1
40,54:1
40,55:1
40,60:1
40,62:1
40,64:1
40,66:1
41,16:1
41,21:1
41,30:1
41,40:1
41,44:1
41,45:1
41,46:1
41,48:1
41,50:1
41,51:1
41,52:1
41,56:1
41,57:1
41,58:1
41,59:1
41,61:1
41,63:1
41,65:1
41,67:1
42,16:1
42,21:1
42,30:1
42,40:1
42,44:1
42,45:1
42,46:1
42,48:1
42,50:1
42,51:1
42,52:1
42,56:1
42,57:1
42,58:1
42,59:1
42,61:1
42,63:1
42,65:1
42,67:1
43,16:1
43,21:1
43,30:1
43,40:1
43,44:1
43,45:1
43,56:1
43,57:1
43,58:1
43,59:1
43,61:1
43,63:1
43,65:1
43,67:1
44,41:1
44,42:1
44,43:1
44,47:1
44,49:1
44,54:1
44,55:1
44,60:1
44,62:1
44,64:1
44,66:1
45,41:1
45,42:1
45,54:1
45,55:1
45,60:1
45,62:1
45,64:1
45,66:1
46,41:1
46,42:1
46,47:1
46,54:1
46,55:1
46,60:1
46,62:1
46,64:1
46,66:1
47,16:1
47,21:1
47,30:1
47,40:1
47,44:1
47,48:1
47,56:1
47,57:1
47,58:1
47,59:1
47,61:1
47,63:1
47,65:1
47,67:1
48,41:1
48,42:1
48,49:1
48,53:1
48,54:1
48,55:1
48,60:1
48,62:1
48,64:1
48,66:1
48,68:1
48,70:1
48,79:1
48,81:1
48,82:1
48,84:1
48,88:1
48,89:1
49,16:1
49,21:1
49,30:1
49,40:1
49,44:1
49,48:1
49,50:1
49,56:1
49,57:1
49,58:1
49,59:1
49,61:1
49,63:1
49,65:1
49,67:1
50,41:1
50,42:1
50,54:1
50,55:1
50,60:1
50,62:1
50,64:1
50,66:1
51,41:1
51,42:1
51,54:1
51,55:1
51,60:1
51,62:1
51,64:1
51,66:1
52,41:1
52,42:1
52,53:1
52,54:1
52,55:1
52,60:1
52,62:1
52,64:1
52,66:1
53,16:1
53,21:1
53,30:1
53,48:1
53,56:1
53,57:1
53,58:1
53,59:1
53,61:1
53,63:1
53,65:1
53,67:1
53,69:1
53,71:1
54,25:1
54,26:1
54,27:1
54,28:1
54,35:1
54,40:1
54,44:1
54,45:1
54,46:1
54,48:1
54,50:1
54,51:1
54,52:1
54,69:1
54,71:1
54,72:1
54,80:1
55,25:1
55,26:1
55,27:1
55,28:1
55,35:1
55,40:1
55,44:1
55,45:1
55,46:1
55,48:1
55,50:1
55,51:1
55,52:1
55,56:1
55,69:1
55,71:1
55,72:1
55,80:1
56,19:1
56,22:1
56,23:1
56,24:1
56,29:1
56,31:1
56,32:1
56,33:1
56,34:1
56,36:1
56,37:1
56,38:1
56,39:1
56,41:1
56,42:1
56,43:1
56,47:1
56,49:1
56,53:1
56,68:1
56,70:1
57,19:1
57,22:1
57,23:1
57,24:1
57,29:1
57,31:1
57,32:1
57,33:1
57,34:1
57,36:1
57,37:1
57,38:1
57,39:1
57,41:1
57,42:1
57,43:1
57,47:1
57,49:1
57,53:1
57,60:1
57,62:1
57,64:1
57,66:1
57,68:1
57,70:1
58,19:1
58,22:1
58,23:1
58,24:1
58,29:1
58,31:1
58,32:1
58,33:1
58,34:1
58,36:1
58,37:1
58,38:1
58,39:1
58,41:1
58,42:1
58,43:1
58,47:1
58,49:1
58,53:1
58,60:1
58,62:1
58,64:1
58,66:1
58,68:1
58,70:1
59,19:1
59,22:1
59,23:1
59,24:1
59,29:1
59,31:1
59,32:1
59,33:1
59,34:1
59,36:1
59,37:1
59,38:1
59,39:1
59,41:1
59,42:1
59,43:1
59,47:1
59,49:1
59,53:1
59,60:1
59,62:1
59,64:1
59,66:1
59,68:1
59,70:1
60,25:1
60,26:1
60,27:1
60,28:1
60,35:1
60,40:1
60,44:1
60,45:1
60,46:1
60,48:1
60,50:1
60,51:1
60,52:1
60,58:1
60,59:1
60,61:1
60,63:1
60,65:1
60,67:1
60,69:1
60,71:1
60,72:1
60,80:1
61,19:1
61,22:1
61,23:1
61,24:1
61,29:1
61,31:1
61,32:1
61,33:1
61,34:1
61,36:1
61,37:1
61,38:1
61,39:1
61,41:1
61,42:1
61,43:1
61,47:1
61,49:1
61,53:1
61,60:1
61,62:1
61,64:1
61,66:1
61,68:1
61,70:1
62,25:1
62,26:1
62,27:1
62,28:1
62,35:1
62,40:1
62,44:1
62,45:1
62,46:1
62,48:1
62,50:1
62,51:1
62,52:1
62,58:1
62,59:1
62,61:1
62,63:1
62,65:1
62,67:1
62,69:1
62,71:1
62,72:1
62,80:1
63,19:1
63,22:1
63,23:1
63,24:1
63,29:1
63,31:1
63,32:1
63,33:1
63,34:1
63,36:1
63,37:1
63,38:1
63,39:1
63,41:1
63,42:1
63,43:1
63,47:1
63,49:1
63,53:1
63,60:1
63,62:1
63,64:1
63,66:1
63,68:1
63,70:1
64,25:1
64,26:1
64,27:1
64,28:1
64,35:1
64,40:1
64,44:1
64,45:1
64,46:1
64,48:1
64,50:1
64,51:1
64,52:1
64,58:1
64,59:1
64,61:1
64,63:1
64,65:1
64,67:1
64,69:1
64,71:1
64,72:1
64,80:1
65,19:1
65,22:1
65,23:1
65,24:1
65,29:1
65,31:1
65,32:1
65,33:1
65,34:1
65,36:1
65,37:1
65,38:1
65,39:1
65,41:1
65,42:1
65,43:1
65,47:1
65,49:1
65,53:1
65,60:1
65,62:1
65,64:1
65,66:1
65,68:1
65,70:1
66,25:1
66,26:1
66,27:1
66,28:1
66,35:1
66,40:1
66,44:1
66,45:1
66,46:1
66,48:1
66,50:1
66,51:1
66,52:1
66,58:1
66,59:1
66,61:1
66,63:1
66,65:1
66,67:1
66,69:1
66,71:1
66,72:1
66,80:1
67,19:1
67,22:1
67,23:1
67,24:1
67,29:1
67,31:1
67,32:1
67,33:1
67,34:1
67,36:1
67,37:1
67,38:1
67,39:1
67,41:1
67,42:1
67,43:1
67,47:1
67,49:1
67,53:1
67,68:1
67,70:1
68,16:1
68,21:1
68,30:1
68,48:1
68,56:1
68,57:1
68,58:1
68,59:1
68,61:1
68,63:1
68,65:1
68,67:1
68,69:1
68,71:1
68,72:1
68,73:1
68,74:1
68,75:1
68,76:1
68,77:1
69,54:1
69,55:1
69,60:1
69,62:1
69,64:1
69,66:1
69,68:1
69,70:1
70,16:1
70,21:1
70,30:1
70,48:1
70,56:1
70,57:1
70,58:1
70,59:1
70,61:1
70,63:1
70,65:1
70,67:1
70,69:1
70,71:1
70,72:1
70,73:1
70,74:1
70,75:1
70,76:1
70,77:1
71,54:1
71,55:1
71,60:1
71,62:1
71,64:1
71,66:1
71,68:1
71,70:1
72,54:1
72,55:1
72,60:1
72,62:1
72,64:1
72,66:1
73,68:1
73,70:1
74,68:1
74,70:1
75,68:1
75,70:1
76,68:1
76,70:1
76,79:1
76,81:1
77,68:1
77,70:1
78,79:1
79,48:1
79,76:1
79,80:1
80,54:1
80,55:1
80,60:1
80,62:1
80,64:1
80,66:1
80,79:1
80,81:1
81,48:1
81,85:1
82,48:1
82,83:1
82,85:1
83,84:1
84,48:1
84,83:1
84,85:1
84,86:1
85,82:1
85,84:1
87,88:1
87,89:1
88,48:1
89,48:1

<setup times backward>
5,9:1
5,13:1
6,9:1
7,9:1
8,9:1
8,13:1
8,14:1
8,15:1
10,9:1
10,13:1
11,9:1
12,9:1
16,9:1
16,13:1
16,14:1
16,15:1
16,19:1
16,22:1
16,23:1
16,24:1
16,29:1
16,31:1
16,32:1
16,33:1
16,34:1
16,36:1
16,37:1
16,38:1
16,39:1
16,41:1
16,42:1
16,43:1
16,47:1
16,49:1
16,53:1
16,68:1
16,70:1
17,9:1
17,13:1
17,14:1
17,15:1
18,9:1
18,13:1
18,14:1
18,15:1
20,9:1
20,13:1
20,14:1
20,15:1
20,19:1
20,22:1
20,23:1
20,24:1
21,9:1
21,13:1
21,14:1
21,15:1
21,19:1
21,22:1
21,23:1
21,24:1
21,29:1
21,31:1
21,32:1
21,33:1
21,34:1
21,36:1
21,37:1
21,38:1
21,39:1
21,41:1
21,42:1
21,43:1
21,47:1
21,49:1
21,53:1
21,68:1
21,70:1
25,9:1
25,13:1
25,14:1
25,15:1
25,19:1
25,22:1
25,23:1
25,24:1
25,54:1
25,55:1
25,60:1
25,62:1
25,64:1
25,66:1
26,9:1
26,13:1
26,14:1
26,15:1
26,19:1
26,22:1
26,23:1
26,24:1
26,29:1
26,31:1
26,32:1
26,33:1
26,34:1
26,36:1
26,54:1
26,55:1
26,60:1
26,62:1
26,64:1
26,66:1
27,9:1
27,13:1
27,14:1
27,15:1
27,19:1
27,22:1
27,23:1
27,24:1
27,29:1
27,31:1
27,32:1
27,54:1
27,55:1
27,60:1
27,62:1
27,64:1
27,66:1
28,9:1
28,13:1
28,14:1
28,15:1
28,19:1
28,22:1
28,23:1
28,24:1
28,54:1
28,55:1
28,60:1
28,62:1
28,64:1
28,66:1
30,9:1
30,13:1
30,14:1
30,15:1
30,19:1
30,22:1
30,23:1
30,24:1
30,29:1
30,31:1
30,32:1
30,33:1
30,34:1
30,36:1
30,37:1
30,38:1
30,39:1
30,41:1
30,42:1
30,43:1
30,47:1
30,49:1
30,53:1
30,68:1
30,70:1
35,9:1
35,13:1
35,14:1
35,15:1
35,19:1
35,22:1
35,23:1
35,24:1
35,29:1
35,31:1
35,32:1
35,33:1
35,34:1
35,54:1
35,55:1
35,60:1
35,62:1
35,64:1
35,66:1
40,9:1
40,13:1
40,14:1
40,15:1
40,19:1
40,22:1
40,23:1
40,24:1
40,29:1
40,31:1
40,32:1
40,33:1
40,34:1
40,36:1
40,37:1
40,38:1
40,39:1
40,41:1
40,42:1
40,43:1
40,47:1
40,49:1
40,54:1
40,55:1
40,60:1
40,62:1
40,64:1
40,66:1
44,9:1
44,13:1
44,14:1
44,15:1
44,19:1
44,22:1
44,23:1
44,24:1
44,29:1
44,31:1
44,32:1
44,33:1
44,34:1
44,36:1
44,37:1
44,38:1
44,39:1
44,41:1
44,42:1
44,43:1
44,47:1
44,49:1
44,54:1
44,55:1
44,60:1
44,62:1
44,64:1
44,66:1
45,9:1
45,13:1
45,14:1
45,15:1
45,19:1
45,22:1
45,23:1
45,24:1
45,29:1
45,31:1
45,32:1
45,33:1
45,34:1
45,36:1
45,37:1
45,38:1
45,39:1
45,41:1
45,42:1
45,43:1
45,54:1
45,55:1
45,60:1
45,62:1
45,64:1
45,66:1
46,9:1
46,13:1
46,14:1
46,15:1
46,19:1
46,22:1
46,23:1
46,24:1
46,29:1
46,31:1
46,32:1
46,33:1
46,34:1
46,36:1
46,37:1
46,38:1
46,39:1
46,41:1
46,42:1
46,43:1
46,54:1
46,55:1
46,60:1
46,62:1
46,64:1
46,66:1
48,9:1
48,13:1
48,14:1
48,15:1
48,19:1
48,22:1
48,23:1
48,24:1
48,29:1
48,31:1
48,32:1
48,33:1
48,34:1
48,36:1
48,37:1
48,38:1
48,39:1
48,41:1
48,42:1
48,43:1
48,47:1
48,49:1
48,53:1
48,54:1
48,55:1
48,60:1
48,62:1
48,64:1
48,66:1
48,68:1
48,70:1
48,79:1
48,81:1
48,82:1
48,84:1
48,88:1
48,89:1
50,9:1
50,13:1
50,14:1
50,15:1
50,19:1
50,22:1
50,23:1
50,24:1
50,29:1
50,31:1
50,32:1
50,33:1
50,34:1
50,36:1
50,37:1
50,38:1
50,39:1
50,41:1
50,42:1
50,43:1
50,47:1
50,49:1
50,54:1
50,55:1
50,60:1
50,62:1
50,64:1
50,66:1
51,9:1
51,13:1
51,14:1
51,15:1
51,19:1
51,22:1
51,23:1
51,24:1
51,29:1
51,31:1
51,32:1
51,33:1
51,34:1
51,36:1
51,37:1
51,38:1
51,39:1
51,41:1
51,42:1
51,43:1
51,47:1
51,49:1
51,54:1
51,55:1
51,60:1
51,62:1
51,64:1
51,66:1
52,9:1
52,13:1
52,14:1
52,15:1
52,19:1
52,22:1
52,23:1
52,24:1
52,29:1
52,31:1
52,32:1
52,33:1
52,34:1
52,36:1
52,37:1
52,38:1
52,39:1
52,41:1
52,42:1
52,43:1
52,47:1
52,49:1
52,54:1
52,55:1
52,60:1
52,62:1
52,64:1
52,66:1
56,9:1
56,13:1
56,14:1
56,15:1
56,19:1
56,22:1
56,23:1
56,24:1
56,29:1
56,31:1
56,32:1
56,33:1
56,34:1
56,36:1
56,37:1
56,38:1
56,39:1
56,41:1
56,42:1
56,43:1
56,47:1
56,49:1
56,53:1
56,54:1
56,55:1
56,68:1
56,70:1
57,9:1
57,13:1
57,14:1
57,15:1
57,19:1
57,22:1
57,23:1
57,24:1
57,29:1
57,31:1
57,32:1
57,33:1
57,34:1
57,36:1
57,37:1
57,38:1
57,39:1
57,41:1
57,42:1
57,43:1
57,47:1
57,49:1
57,53:1
57,54:1
57,55:1
57,68:1
57,70:1
58,9:1
58,13:1
58,14:1
58,15:1
58,19:1
58,22:1
58,23:1
58,24:1
58,29:1
58,31:1
58,32:1
58,33:1
58,34:1
58,36:1
58,37:1
58,38:1
58,39:1
58,41:1
58,42:1
58,43:1
58,47:1
58,49:1
58,53:1
58,54:1
58,55:1
58,60:1
58,62:1
58,64:1
58,66:1
58,68:1
58,70:1
59,9:1
59,13:1
59,14:1
59,15:1
59,19:1
59,22:1
59,23:1
59,24:1
59,29:1
59,31:1
59,32:1
59,33:1
59,34:1
59,36:1
59,37:1
59,38:1
59,39:1
59,41:1
59,42:1
59,43:1
59,47:1
59,49:1
59,53:1
59,54:1
59,55:1
59,60:1
59,62:1
59,64:1
59,66:1
59,68:1
59,70:1
61,9:1
61,13:1
61,14:1
61,15:1
61,19:1
61,22:1
61,23:1
61,24:1
61,29:1
61,31:1
61,32:1
61,33:1
61,34:1
61,36:1
61,37:1
61,38:1
61,39:1
61,41:1
61,42:1
61,43:1
61,47:1
61,49:1
61,53:1
61,54:1
61,55:1
61,60:1
61,62:1
61,64:1
61,66:1
61,68:1
61,70:1
63,9:1
63,13:1
63,14:1
63,15:1
63,19:1
63,22:1
63,23:1
63,24:1
63,29:1
63,31:1
63,32:1
63,33:1
63,34:1
63,36:1
63,37:1
63,38:1
63,39:1
63,41:1
63,42:1
63,43:1
63,47:1
63,49:1
63,53:1
63,54:1
63,55:1
63,60:1
63,62:1
63,64:1
63,66:1
63,68:1
63,70:1
65,9:1
65,13:1
65,14:1
65,15:1
65,19:1
65,22:1
65,23:1
65,24:1
65,29:1
65,31:1
65,32:1
65,33:1
65,34:1
65,36:1
65,37:1
65,38:1
65,39:1
65,41:1
65,42:1
65,43:1
65,47:1
65,49:1
65,53:1
65,54:1
65,55:1
65,60:1
65,62:1
65,64:1
65,66:1
65,68:1
65,70:1
67,9:1
67,13:1
67,14:1
67,15:1
67,19:1
67,22:1
67,23:1
67,24:1
67,29:1
67,31:1
67,32:1
67,33:1
67,34:1
67,36:1
67,37:1
67,38:1
67,39:1
67,41:1
67,42:1
67,43:1
67,47:1
67,49:1
67,53:1
67,54:1
67,55:1
67,60:1
67,62:1
67,64:1
67,66:1
67,68:1
67,70:1
69,9:1
69,13:1
69,14:1
69,15:1
69,19:1
69,22:1
69,23:1
69,24:1
69,29:1
69,31:1
69,32:1
69,33:1
69,34:1
69,36:1
69,37:1
69,38:1
69,39:1
69,41:1
69,42:1
69,43:1
69,47:1
69,49:1
69,53:1
69,54:1
69,55:1
69,60:1
69,62:1
69,64:1
69,66:1
69,68:1
69,70:1
71,9:1
71,13:1
71,14:1
71,15:1
71,19:1
71,22:1
71,23:1
71,24:1
71,29:1
71,31:1
71,32:1
71,33:1
71,34:1
71,36:1
71,37:1
71,38:1
71,39:1
71,41:1
71,42:1
71,43:1
71,47:1
71,49:1
71,53:1
71,54:1
71,55:1
71,60:1
71,62:1
71,64:1
71,66:1
71,68:1
71,70:1
72,9:1
72,13:1
72,14:1
72,15:1
72,19:1
72,22:1
72,23:1
72,24:1
72,29:1
72,31:1
72,32:1
72,33:1
72,34:1
72,36:1
72,37:1
72,38:1
72,39:1
72,41:1
72,42:1
72,43:1
72,47:1
72,49:1
72,53:1
72,54:1
72,55:1
72,60:1
72,62:1
72,64:1
72,66:1
72,68:1
72,70:1
73,9:1
73,13:1
73,14:1
73,15:1
73,19:1
73,22:1
73,23:1
73,24:1
73,29:1
73,31:1
73,32:1
73,33:1
73,34:1
73,36:1
73,37:1
73,38:1
73,39:1
73,41:1
73,42:1
73,43:1
73,47:1
73,49:1
73,53:1
73,54:1
73,55:1
73,60:1
73,62:1
73,64:1
73,66:1
73,68:1
73,70:1
74,9:1
74,13:1
74,14:1
74,15:1
74,19:1
74,22:1
74,23:1
74,24:1
74,29:1
74,31:1
74,32:1
74,33:1
74,34:1
74,36:1
74,37:1
74,38:1
74,39:1
74,41:1
74,42:1
74,43:1
74,47:1
74,49:1
74,53:1
74,54:1
74,55:1
74,60:1
74,62:1
74,64:1
74,66:1
74,68:1
74,70:1
75,9:1
75,13:1
75,14:1
75,15:1
75,19:1
75,22:1
75,23:1
75,24:1
75,29:1
75,31:1
75,32:1
75,33:1
75,34:1
75,36:1
75,37:1
75,38:1
75,39:1
75,41:1
75,42:1
75,43:1
75,47:1
75,49:1
75,53:1
75,54:1
75,55:1
75,60:1
75,62:1
75,64:1
75,66:1
75,68:1
75,70:1
76,9:1
76,13:1
76,14:1
76,15:1
76,19:1
76,22:1
76,23:1
76,24:1
76,29:1
76,31:1
76,32:1
76,33:1
76,34:1
76,36:1
76,37:1
76,38:1
76,39:1
76,41:1
76,42:1
76,43:1
76,47:1
76,49:1
76,53:1
76,54:1
76,55:1
76,60:1
76,62:1
76,64:1
76,66:1
76,68:1
76,70:1
76,79:1
77,9:1
77,13:1
77,14:1
77,15:1
77,19:1
77,22:1
77,23:1
77,24:1
77,29:1
77,31:1
77,32:1
77,33:1
77,34:1
77,36:1
77,37:1
77,38:1
77,39:1
77,41:1
77,42:1
77,43:1
77,47:1
77,49:1
77,53:1
77,54:1
77,55:1
77,60:1
77,62:1
77,64:1
77,66:1
77,68:1
77,70:1
78,9:1
78,13:1
78,14:1
78,15:1
78,19:1
78,22:1
78,23:1
78,24:1
78,29:1
78,31:1
78,32:1
78,33:1
78,34:1
78,36:1
78,37:1
78,38:1
78,39:1
78,41:1
78,42:1
78,43:1
78,47:1
78,49:1
78,53:1
78,54:1
78,55:1
78,60:1
78,62:1
78,64:1
78,66:1
78,68:1
78,70:1
80,9:1
80,13:1
80,14:1
80,15:1
80,19:1
80,22:1
80,23:1
80,24:1
80,29:1
80,31:1
80,32:1
80,33:1
80,34:1
80,36:1
80,37:1
80,38:1
80,39:1
80,41:1
80,42:1
80,43:1
80,47:1
80,49:1
80,53:1
80,54:1
80,55:1
80,60:1
80,62:1
80,64:1
80,66:1
80,68:1
80,70:1
80,79:1
83,9:1
83,13:1
83,14:1
83,15:1
83,19:1
83,22:1
83,23:1
83,24:1
83,29:1
83,31:1
83,32:1
83,33:1
83,34:1
83,36:1
83,37:1
83,38:1
83,39:1
83,41:1
83,42:1
83,43:1
83,47:1
83,49:1
83,53:1
83,54:1
83,55:1
83,60:1
83,62:1
83,64:1
83,66:1
83,68:1
83,70:1
83,79:1
83,81:1
83,82:1
83,84:1
85,9:1
85,13:1
85,14:1
85,15:1
85,19:1
85,22:1
85,23:1
85,24:1
85,29:1
85,31:1
85,32:1
85,33:1
85,34:1
85,36:1
85,37:1
85,38:1
85,39:1
85,41:1
85,42:1
85,43:1
85,47:1
85,49:1
85,53:1
85,54:1
85,55:1
85,60:1
85,62:1
85,64:1
85,66:1
85,68:1
85,70:1
85,79:1
85,81:1
85,82:1
85,84:1
86,9:1
86,13:1
86,14:1
86,15:1
86,19:1
86,22:1
86,23:1
86,24:1
86,29:1
86,31:1
86,32:1
86,33:1
86,34:1
86,36:1
86,37:1
86,38:1
86,39:1
86,41:1
86,42:1
86,43:1
86,47:1
86,49:1
86,53:1
86,54:1
86,55:1
86,60:1
86,62:1
86,64:1
86,66:1
86,68:1
86,70:1
86,79:1
86,81:1
86,82:1
86,84:1
87,9:1
87,13:1
87,14:1
87,15:1
87,19:1
87,22:1
87,23:1
87,24:1
87,29:1
87,31:1
87,32:1
87,33:1
87,34:1
87,36:1
87,37:1
87,38:1
87,39:1
87,41:1
87,42:1
87,43:1
87,47:1
87,49:1
87,53:1
87,54:1
87,55:1
87,60:1
87,62:1
87,64:1
87,66:1
87,68:1
87,70:1
87,79:1
87,81:1
87,82:1
87,84:1

<end>

<optimal SALBP-1 value>
24


<rand seed>
467321153

<Lower Bounds>
Lm1=24
Lms1=24
Lm2=0
Lm3=16
Lm4=24
Best=24

<Optimal Stations (Iterations: 10)>
28
